datasets/2-dimensional/CL_01_25_04.vbp
2
1000 1000 
25
278 269 30
139 110 72
353 388 4
285 367 88
303 314 54
272 297 64
160 182 90
334 236 26
359 225 94
203 315 28
232 175 72
313 169 49
113 166 54
298 131 19
135 132 28
191 334 61
232 105 84
125 111 23
136 220 67
333 396 53
281 109 54
249 123 16
301 105 9
306 123 54
229 343 77
