datasets/2-dimensional/CL_01_25_04.txt
1000 1000 
0 30 278 269 
1 72 139 110 
2 4 353 388 
3 88 285 367 
4 54 303 314 
5 64 272 297 
6 90 160 182 
7 26 334 236 
8 94 359 225 
9 28 203 315 
10 72 232 175 
11 49 313 169 
12 54 113 166 
13 19 298 131 
14 28 135 132 
15 61 191 334 
16 84 232 105 
17 23 125 111 
18 67 136 220 
19 53 333 396 
20 54 281 109 
21 16 249 123 
22 9 301 105 
23 54 306 123 
24 77 229 343 
